\ Model qkp01
\ LP format - for model browsing. Use MPS format to capture full model detail.
Maximize
  33 x_5 + 43 x_6 + 50 x_7 + 9 x_20 + 41 x_27 + 14 x_31 + 12 x_32 + 44 x_34
   + 7 x_37 + 29 x_43 + 30 x_47 + 34 x_52 + 25 x_53 + 26 x_57 + 11 x_63
   + 8 x_71 + 31 x_76 + 11 x_84 + 4 x_89 + 20 x_95 + [ 66 x_1 * x_2
   + 58 x_1 * x_5 + 32 x_1 * x_7 + 28 x_1 * x_9 + 48 x_1 * x_11
   + 26 x_1 * x_13 + 10 x_1 * x_18 + 80 x_1 * x_20 + 84 x_1 * x_22
   + 50 x_1 * x_23 + 54 x_1 * x_28 + 8 x_1 * x_39 + 50 x_1 * x_45
   + 38 x_1 * x_46 + 84 x_1 * x_48 + 34 x_1 * x_52 + 44 x_1 * x_58
   + 80 x_1 * x_62 + 6 x_1 * x_65 + 30 x_1 * x_72 + 70 x_1 * x_76
   + 56 x_1 * x_86 + 62 x_1 * x_88 + 66 x_1 * x_96 + 22 x_1 * x_97
   + 28 x_1 * x_100 + 16 x_2 * x_5 + 48 x_2 * x_13 + 44 x_2 * x_16
   + 24 x_2 * x_27 + 44 x_2 * x_28 + 48 x_2 * x_29 + 96 x_2 * x_41
   + 80 x_2 * x_42 + 98 x_2 * x_43 + 10 x_2 * x_48 + 36 x_2 * x_50
   + 2 x_2 * x_52 + 12 x_2 * x_56 + 88 x_2 * x_58 + 28 x_2 * x_60
   + 88 x_2 * x_61 + 76 x_2 * x_70 + 8 x_2 * x_71 + 56 x_2 * x_74
   + 64 x_2 * x_75 + 32 x_2 * x_76 + 94 x_2 * x_83 + 70 x_2 * x_89
   + 68 x_2 * x_90 + 84 x_2 * x_93 + 24 x_2 * x_100 + 26 x_3 * x_6
   + 18 x_3 * x_14 + 70 x_3 * x_16 + 42 x_3 * x_22 + 18 x_3 * x_24
   + 92 x_3 * x_25 + 30 x_3 * x_27 + 76 x_3 * x_28 + 100 x_3 * x_33
   + 48 x_3 * x_36 + 30 x_3 * x_37 + 8 x_3 * x_38 + 50 x_3 * x_39
   + 36 x_3 * x_40 + 46 x_3 * x_43 + 96 x_3 * x_44 + 100 x_3 * x_49
   + 74 x_3 * x_54 + 68 x_3 * x_57 + 64 x_3 * x_59 + 38 x_3 * x_63
   + 88 x_3 * x_69 + 70 x_3 * x_76 + 10 x_3 * x_77 + 84 x_3 * x_79
   + 100 x_3 * x_80 + 78 x_3 * x_82 + 56 x_3 * x_83 + 42 x_3 * x_85
   + 68 x_3 * x_88 + 92 x_3 * x_93 + 46 x_4 * x_5 + 50 x_4 * x_10
   + 2 x_4 * x_17 + 14 x_4 * x_22 + 38 x_4 * x_23 + 52 x_4 * x_24
   + 74 x_4 * x_25 + 84 x_4 * x_31 + 48 x_4 * x_35 + 26 x_4 * x_39
   + 74 x_4 * x_40 + 20 x_4 * x_44 + 52 x_4 * x_46 + 48 x_4 * x_50
   + 20 x_4 * x_51 + 10 x_4 * x_56 + 76 x_4 * x_63 + 32 x_4 * x_73
   + 82 x_4 * x_80 + 90 x_4 * x_85 + 60 x_4 * x_87 + 82 x_4 * x_91
   + 74 x_4 * x_94 + 40 x_5 * x_14 + 46 x_5 * x_16 + 68 x_5 * x_22
   + 16 x_5 * x_33 + 4 x_5 * x_36 + 100 x_5 * x_52 + 76 x_5 * x_55
   + 50 x_5 * x_56 + 80 x_5 * x_64 + 14 x_5 * x_80 + 36 x_5 * x_84
   + 92 x_5 * x_85 + 94 x_5 * x_89 + 80 x_5 * x_91 + 42 x_5 * x_99
   + 72 x_6 * x_8 + 42 x_6 * x_11 + 72 x_6 * x_17 + 32 x_6 * x_22
   + 66 x_6 * x_28 + 32 x_6 * x_31 + 56 x_6 * x_32 + 82 x_6 * x_41
   + 16 x_6 * x_47 + 58 x_6 * x_54 + 28 x_6 * x_55 + 68 x_6 * x_58
   + 18 x_6 * x_62 + 42 x_6 * x_70 + 24 x_6 * x_71 + 22 x_6 * x_72
   + 44 x_6 * x_74 + 40 x_6 * x_80 + 60 x_6 * x_85 + 84 x_6 * x_91
   + 98 x_7 * x_10 + 14 x_7 * x_12 + 28 x_7 * x_14 + 44 x_7 * x_15
   + 76 x_7 * x_16 + 32 x_7 * x_18 + 100 x_7 * x_19 + 36 x_7 * x_25
   + 30 x_7 * x_27 + 10 x_7 * x_30 + 22 x_7 * x_31 + 94 x_7 * x_33
   + 26 x_7 * x_40 + 54 x_7 * x_43 + 36 x_7 * x_48 + 72 x_7 * x_51
   + 90 x_7 * x_55 + 42 x_7 * x_62 + 22 x_7 * x_64 + 18 x_7 * x_66
   + 64 x_7 * x_76 + 40 x_7 * x_80 + 26 x_7 * x_87 + 2 x_7 * x_88
   + 38 x_7 * x_89 + 26 x_7 * x_98 + 8 x_8 * x_9 + 20 x_8 * x_10
   + 74 x_8 * x_11 + 80 x_8 * x_12 + 60 x_8 * x_14 + 20 x_8 * x_15
   + 68 x_8 * x_23 + 68 x_8 * x_25 + 22 x_8 * x_28 + 4 x_8 * x_30
   + 90 x_8 * x_31 + 10 x_8 * x_41 + 36 x_8 * x_43 + 24 x_8 * x_47
   + 22 x_8 * x_49 + 76 x_8 * x_51 + 90 x_8 * x_52 + 82 x_8 * x_59
   + 90 x_8 * x_65 + 48 x_8 * x_67 + 86 x_8 * x_68 + 60 x_8 * x_72
   + 42 x_8 * x_76 + 96 x_8 * x_77 + 22 x_8 * x_81 + 36 x_8 * x_82
   + 2 x_8 * x_97 + 16 x_8 * x_99 + 22 x_9 * x_10 + 56 x_9 * x_14
   + 70 x_9 * x_15 + 96 x_9 * x_17 + 90 x_9 * x_25 + 28 x_9 * x_26
   + 50 x_9 * x_30 + 98 x_9 * x_32 + 98 x_9 * x_33 + 62 x_9 * x_34
   + 52 x_9 * x_52 + 36 x_9 * x_53 + 24 x_9 * x_60 + 66 x_9 * x_61
   + 80 x_9 * x_62 + 26 x_9 * x_63 + 80 x_9 * x_67 + 6 x_9 * x_71
   + 6 x_9 * x_73 + 62 x_9 * x_74 + 64 x_9 * x_81 + 12 x_9 * x_83
   + 52 x_9 * x_85 + 82 x_9 * x_86 + 32 x_9 * x_87 + 52 x_9 * x_95
   + 92 x_9 * x_99 + 8 x_10 * x_11 + 12 x_10 * x_14 + 68 x_10 * x_15
   + 92 x_10 * x_16 + 80 x_10 * x_18 + 80 x_10 * x_20 + 70 x_10 * x_28
   + 82 x_10 * x_30 + 84 x_10 * x_43 + 2 x_10 * x_51 + 4 x_10 * x_53
   + 52 x_10 * x_55 + 82 x_10 * x_56 + 12 x_10 * x_64 + 86 x_10 * x_66
   + 16 x_10 * x_73 + 86 x_10 * x_75 + 12 x_10 * x_76 + 34 x_10 * x_79
   + 98 x_10 * x_81 + 90 x_10 * x_82 + 60 x_10 * x_83 + 40 x_10 * x_86
   + 4 x_10 * x_88 + 18 x_10 * x_91 + 48 x_11 * x_13 + 82 x_11 * x_18
   + 64 x_11 * x_19 + 4 x_11 * x_27 + 52 x_11 * x_34 + 48 x_11 * x_35
   + 98 x_11 * x_36 + 34 x_11 * x_38 + 38 x_11 * x_42 + 26 x_11 * x_44
   + 98 x_11 * x_49 + 90 x_11 * x_53 + 50 x_11 * x_54 + 20 x_11 * x_58
   + 50 x_11 * x_60 + 48 x_11 * x_64 + 28 x_11 * x_68 + 56 x_11 * x_70
   + 12 x_11 * x_79 + 22 x_11 * x_87 + 70 x_11 * x_89 + 10 x_11 * x_91
   + 76 x_11 * x_99 + 36 x_12 * x_15 + 32 x_12 * x_16 + 40 x_12 * x_20
   + 70 x_12 * x_21 + 28 x_12 * x_23 + 92 x_12 * x_33 + 14 x_12 * x_36
   + 76 x_12 * x_42 + 66 x_12 * x_50 + 56 x_12 * x_53 + 20 x_12 * x_57
   + 2 x_12 * x_59 + 48 x_12 * x_62 + 74 x_12 * x_66 + 66 x_12 * x_69
   + 78 x_12 * x_73 + 62 x_12 * x_74 + 66 x_12 * x_76 + 64 x_12 * x_80
   + 44 x_12 * x_82 + 52 x_12 * x_83 + 58 x_12 * x_85 + 84 x_12 * x_88
   + 60 x_12 * x_92 + 60 x_12 * x_99 + 34 x_13 * x_16 + 34 x_13 * x_17
   + 46 x_13 * x_20 + 60 x_13 * x_24 + 80 x_13 * x_25 + 16 x_13 * x_36
   + 10 x_13 * x_37 + 20 x_13 * x_38 + 14 x_13 * x_43 + 94 x_13 * x_45
   + 100 x_13 * x_46 + 12 x_13 * x_48 + 92 x_13 * x_49 + 30 x_13 * x_57
   + 48 x_13 * x_58 + 74 x_13 * x_64 + 90 x_13 * x_69 + 4 x_13 * x_70
   + 78 x_13 * x_74 + 48 x_13 * x_77 + 20 x_13 * x_80 + 80 x_13 * x_83
   + 38 x_13 * x_88 + 72 x_13 * x_89 + 14 x_13 * x_94 + 88 x_14 * x_23
   + 6 x_14 * x_25 + 8 x_14 * x_30 + 22 x_14 * x_37 + 92 x_14 * x_43
   + 32 x_14 * x_44 + 8 x_14 * x_47 + 62 x_14 * x_57 + 56 x_14 * x_58
   + 96 x_14 * x_59 + 52 x_14 * x_62 + 100 x_14 * x_70 + 4 x_14 * x_71
   + 18 x_14 * x_89 + 68 x_14 * x_91 + 24 x_14 * x_93 + 96 x_14 * x_94
   + 18 x_15 * x_18 + 64 x_15 * x_21 + 64 x_15 * x_22 + 66 x_15 * x_23
   + 54 x_15 * x_24 + 28 x_15 * x_30 + 48 x_15 * x_36 + 52 x_15 * x_42
   + 48 x_15 * x_43 + 30 x_15 * x_52 + 6 x_15 * x_62 + 82 x_15 * x_67
   + 26 x_15 * x_73 + 58 x_15 * x_76 + 98 x_15 * x_77 + 22 x_15 * x_79
   + 74 x_15 * x_85 + 58 x_15 * x_86 + 26 x_15 * x_87 + 58 x_15 * x_94
   + 14 x_15 * x_97 + 92 x_16 * x_21 + 98 x_16 * x_27 + 90 x_16 * x_29
   + 50 x_16 * x_35 + 92 x_16 * x_38 + 94 x_16 * x_40 + 38 x_16 * x_46
   + 88 x_16 * x_47 + 42 x_16 * x_48 + 36 x_16 * x_52 + 70 x_16 * x_56
   + 82 x_16 * x_64 + 80 x_16 * x_65 + 76 x_16 * x_69 + 72 x_16 * x_73
   + 40 x_16 * x_81 + 4 x_16 * x_84 + 18 x_16 * x_89 + 68 x_16 * x_91
   + 66 x_16 * x_92 + 42 x_17 * x_18 + 48 x_17 * x_21 + 34 x_17 * x_22
   + 96 x_17 * x_28 + 90 x_17 * x_30 + 56 x_17 * x_35 + 34 x_17 * x_39
   + 36 x_17 * x_40 + 66 x_17 * x_42 + 54 x_17 * x_47 + 22 x_17 * x_50
   + 56 x_17 * x_63 + 24 x_17 * x_66 + 98 x_17 * x_69 + 66 x_17 * x_70
   + 34 x_17 * x_86 + 98 x_17 * x_92 + 84 x_17 * x_93 + 76 x_18 * x_24
   + 18 x_18 * x_29 + 44 x_18 * x_30 + 98 x_18 * x_35 + 20 x_18 * x_42
   + 2 x_18 * x_43 + 96 x_18 * x_46 + 52 x_18 * x_48 + 94 x_18 * x_50
   + 12 x_18 * x_51 + 66 x_18 * x_53 + 96 x_18 * x_54 + 72 x_18 * x_58
   + 98 x_18 * x_60 + 60 x_18 * x_67 + 78 x_18 * x_78 + 48 x_18 * x_82
   + 58 x_18 * x_84 + 90 x_18 * x_91 + 50 x_18 * x_97 + 88 x_19 * x_25
   + 26 x_19 * x_35 + 46 x_19 * x_38 + 82 x_19 * x_48 + 92 x_19 * x_54
   + 32 x_19 * x_56 + 80 x_19 * x_58 + 96 x_19 * x_60 + 6 x_19 * x_62
   + 42 x_19 * x_63 + 44 x_19 * x_69 + 46 x_19 * x_73 + 26 x_19 * x_75
   + 42 x_19 * x_82 + 96 x_19 * x_87 + 94 x_19 * x_92 + 94 x_19 * x_98
   + 40 x_20 * x_22 + 94 x_20 * x_24 + 66 x_20 * x_25 + 56 x_20 * x_35
   + 48 x_20 * x_36 + 64 x_20 * x_37 + 46 x_20 * x_42 + 18 x_20 * x_49
   + 4 x_20 * x_56 + 98 x_20 * x_57 + 78 x_20 * x_64 + 24 x_20 * x_67
   + 74 x_20 * x_74 + 84 x_20 * x_75 + 28 x_20 * x_76 + 64 x_20 * x_79
   + 52 x_20 * x_82 + 28 x_20 * x_83 + 64 x_21 * x_22 + 86 x_21 * x_28
   + 52 x_21 * x_30 + 94 x_21 * x_31 + 44 x_21 * x_33 + 38 x_21 * x_38
   + 50 x_21 * x_42 + 80 x_21 * x_43 + 98 x_21 * x_45 + 74 x_21 * x_46
   + 98 x_21 * x_48 + 62 x_21 * x_55 + 72 x_21 * x_57 + 10 x_21 * x_60
   + 98 x_21 * x_61 + 90 x_21 * x_62 + 20 x_21 * x_74 + 40 x_21 * x_84
   + 52 x_21 * x_86 + 2 x_21 * x_87 + 80 x_21 * x_93 + 16 x_21 * x_96
   + 32 x_21 * x_98 + 4 x_21 * x_100 + 4 x_22 * x_23 + 66 x_22 * x_31
   + 22 x_22 * x_37 + 88 x_22 * x_38 + 82 x_22 * x_39 + 66 x_22 * x_40
   + 18 x_22 * x_44 + 40 x_22 * x_46 + 50 x_22 * x_55 + 66 x_22 * x_57
   + 40 x_22 * x_59 + 90 x_22 * x_61 + 92 x_22 * x_63 + 22 x_22 * x_64
   + 86 x_22 * x_66 + 98 x_22 * x_70 + 4 x_22 * x_71 + 70 x_22 * x_72
   + 88 x_22 * x_76 + 54 x_22 * x_78 + 20 x_22 * x_81 + 88 x_22 * x_84
   + 62 x_22 * x_85 + 22 x_22 * x_87 + 66 x_22 * x_89 + 2 x_22 * x_90
   + 90 x_22 * x_93 + 52 x_22 * x_94 + 54 x_22 * x_96 + 2 x_22 * x_97
   + 84 x_22 * x_98 + 26 x_23 * x_24 + 50 x_23 * x_30 + 52 x_23 * x_31
   + 82 x_23 * x_34 + 44 x_23 * x_36 + 44 x_23 * x_41 + 56 x_23 * x_42
   + 76 x_23 * x_49 + 78 x_23 * x_50 + 30 x_23 * x_53 + 48 x_23 * x_54
   + 68 x_23 * x_55 + 14 x_23 * x_63 + 100 x_23 * x_69 + 10 x_23 * x_71
   + 26 x_23 * x_74 + 94 x_23 * x_78 + 46 x_23 * x_81 + 88 x_23 * x_83
   + 6 x_23 * x_84 + 80 x_23 * x_90 + 16 x_23 * x_91 + 78 x_23 * x_92
   + 72 x_23 * x_97 + 62 x_24 * x_26 + 70 x_24 * x_31 + 58 x_24 * x_36
   + 66 x_24 * x_39 + 28 x_24 * x_40 + 6 x_24 * x_41 + 18 x_24 * x_42
   + 10 x_24 * x_43 + 50 x_24 * x_48 + 56 x_24 * x_49 + 36 x_24 * x_53
   + 100 x_24 * x_64 + 34 x_24 * x_65 + 62 x_24 * x_69 + 16 x_24 * x_76
   + 96 x_24 * x_80 + 68 x_24 * x_86 + 100 x_24 * x_87 + 26 x_24 * x_90
   + 20 x_24 * x_92 + 56 x_24 * x_94 + 68 x_24 * x_99 + 26 x_24 * x_100
   + 56 x_25 * x_43 + 10 x_25 * x_51 + 48 x_25 * x_56 + 88 x_25 * x_57
   + 18 x_25 * x_63 + 56 x_25 * x_64 + 34 x_25 * x_67 + 50 x_25 * x_78
   + 14 x_25 * x_79 + 64 x_25 * x_82 + 42 x_25 * x_85 + 52 x_25 * x_86
   + 90 x_25 * x_89 + 24 x_26 * x_30 + 6 x_26 * x_37 + 56 x_26 * x_38
   + 68 x_26 * x_53 + 68 x_26 * x_55 + 56 x_26 * x_59 + 82 x_26 * x_61
   + 14 x_26 * x_70 + 70 x_26 * x_76 + 100 x_26 * x_77 + 92 x_26 * x_78
   + 28 x_26 * x_79 + 54 x_26 * x_83 + 46 x_26 * x_84 + 42 x_26 * x_94
   + 88 x_26 * x_100 + 80 x_27 * x_28 + 18 x_27 * x_30 + 76 x_27 * x_36
   + 100 x_27 * x_48 + 76 x_27 * x_51 + 82 x_27 * x_56 + 36 x_27 * x_57
   + 32 x_27 * x_58 + 92 x_27 * x_65 + 58 x_27 * x_67 + 44 x_27 * x_71
   + 14 x_27 * x_77 + 28 x_27 * x_82 + 68 x_27 * x_92 + 6 x_27 * x_94
   + 68 x_27 * x_96 + 82 x_27 * x_98 + 38 x_27 * x_99 + 100 x_28 * x_30
   + 18 x_28 * x_33 + 52 x_28 * x_34 + 78 x_28 * x_39 + 22 x_28 * x_40
   + 6 x_28 * x_43 + 82 x_28 * x_44 + 48 x_28 * x_45 + 78 x_28 * x_46
   + 4 x_28 * x_56 + 34 x_28 * x_62 + 74 x_28 * x_71 + 18 x_28 * x_75
   + 100 x_28 * x_76 + 62 x_28 * x_85 + 24 x_28 * x_90 + 42 x_28 * x_96
   + 40 x_28 * x_99 + 36 x_29 * x_34 + 6 x_29 * x_45 + 88 x_29 * x_47
   + 76 x_29 * x_50 + 86 x_29 * x_54 + 36 x_29 * x_56 + 56 x_29 * x_59
   + 80 x_29 * x_66 + 52 x_29 * x_69 + 50 x_29 * x_74 + 32 x_29 * x_78
   + 80 x_29 * x_79 + 20 x_29 * x_86 + 14 x_29 * x_90 + 44 x_29 * x_91
   + 38 x_29 * x_92 + 94 x_29 * x_94 + 50 x_29 * x_95 + 40 x_29 * x_97
   + 52 x_29 * x_99 + 44 x_30 * x_34 + 62 x_30 * x_36 + 66 x_30 * x_41
   + 42 x_30 * x_46 + 92 x_30 * x_48 + 28 x_30 * x_50 + 60 x_30 * x_54
   + 20 x_30 * x_55 + 46 x_30 * x_56 + 24 x_30 * x_60 + 2 x_30 * x_68
   + 98 x_30 * x_69 + 38 x_30 * x_70 + 62 x_30 * x_81 + 92 x_30 * x_83
   + 54 x_30 * x_84 + 38 x_30 * x_85 + 16 x_30 * x_87 + 50 x_30 * x_88
   + 36 x_30 * x_89 + 10 x_30 * x_94 + 64 x_30 * x_97 + 46 x_30 * x_98
   + 50 x_31 * x_32 + 70 x_31 * x_36 + 20 x_31 * x_37 + 6 x_31 * x_39
   + 60 x_31 * x_41 + 18 x_31 * x_42 + 12 x_31 * x_43 + 50 x_31 * x_44
   + 90 x_31 * x_46 + 68 x_31 * x_49 + 76 x_31 * x_50 + 2 x_31 * x_51
   + 6 x_31 * x_52 + 58 x_31 * x_53 + 40 x_31 * x_55 + 36 x_31 * x_56
   + 38 x_31 * x_60 + 88 x_31 * x_64 + 84 x_31 * x_78 + 66 x_31 * x_80
   + 22 x_31 * x_81 + 60 x_31 * x_91 + 42 x_31 * x_92 + 2 x_31 * x_96
   + 14 x_32 * x_41 + 38 x_32 * x_58 + 44 x_32 * x_59 + 38 x_32 * x_61
   + 26 x_32 * x_63 + 44 x_32 * x_73 + 76 x_32 * x_74 + 98 x_32 * x_77
   + 20 x_32 * x_86 + 94 x_32 * x_90 + 44 x_32 * x_96 + 68 x_32 * x_97
   + 48 x_33 * x_36 + 68 x_33 * x_37 + 72 x_33 * x_38 + 48 x_33 * x_40
   + 84 x_33 * x_43 + 26 x_33 * x_47 + 66 x_33 * x_51 + 92 x_33 * x_55
   + 94 x_33 * x_56 + 52 x_33 * x_65 + 96 x_33 * x_68 + 12 x_33 * x_69
   + 88 x_33 * x_70 + 86 x_33 * x_87 + 4 x_33 * x_99 + 72 x_34 * x_41
   + 86 x_34 * x_44 + 78 x_34 * x_47 + 14 x_34 * x_50 + 100 x_34 * x_53
   + 52 x_34 * x_57 + 72 x_34 * x_67 + 50 x_34 * x_73 + 70 x_34 * x_75
   + 66 x_34 * x_80 + 18 x_34 * x_82 + 44 x_34 * x_87 + 46 x_34 * x_88
   + 30 x_34 * x_96 + 32 x_35 * x_39 + 10 x_35 * x_45 + 32 x_35 * x_48
   + 76 x_35 * x_51 + 78 x_35 * x_53 + 28 x_35 * x_76 + 6 x_35 * x_77
   + 16 x_35 * x_79 + 86 x_35 * x_81 + 76 x_35 * x_85 + 62 x_35 * x_93
   + 46 x_35 * x_97 + 78 x_35 * x_100 + 24 x_36 * x_37 + 84 x_36 * x_47
   + 46 x_36 * x_49 + 74 x_36 * x_50 + 74 x_36 * x_55 + 12 x_36 * x_60
   + 42 x_36 * x_61 + 62 x_36 * x_63 + 82 x_36 * x_66 + 50 x_36 * x_67
   + 12 x_36 * x_70 + 74 x_36 * x_71 + 52 x_36 * x_76 + 64 x_36 * x_77
   + 40 x_36 * x_85 + 74 x_36 * x_96 + 4 x_36 * x_97 + 36 x_36 * x_99
   + 100 x_36 * x_100 + 44 x_37 * x_39 + 16 x_37 * x_42 + 26 x_37 * x_43
   + 12 x_37 * x_48 + 58 x_37 * x_63 + 94 x_37 * x_66 + 78 x_37 * x_75
   + 50 x_37 * x_87 + 18 x_37 * x_91 + 68 x_37 * x_99 + 92 x_38 * x_44
   + 100 x_38 * x_46 + 74 x_38 * x_61 + 78 x_38 * x_62 + 84 x_38 * x_64
   + 64 x_38 * x_65 + 58 x_38 * x_70 + 18 x_38 * x_73 + 60 x_38 * x_79
   + 88 x_38 * x_81 + 28 x_38 * x_84 + 98 x_38 * x_88 + 50 x_38 * x_90
   + 52 x_38 * x_92 + 48 x_38 * x_93 + 94 x_38 * x_96 + 74 x_38 * x_100
   + 18 x_39 * x_41 + 84 x_39 * x_42 + 94 x_39 * x_44 + 44 x_39 * x_54
   + 40 x_39 * x_56 + 88 x_39 * x_62 + 30 x_39 * x_64 + 98 x_39 * x_80
   + 24 x_39 * x_81 + 90 x_39 * x_83 + 46 x_39 * x_85 + 50 x_39 * x_87
   + 26 x_39 * x_89 + 30 x_39 * x_94 + 30 x_39 * x_96 + 100 x_39 * x_97
   + 82 x_39 * x_98 + 44 x_39 * x_99 + 62 x_39 * x_100 + 60 x_40 * x_42
   + 86 x_40 * x_50 + 4 x_40 * x_53 + 6 x_40 * x_56 + 100 x_40 * x_59
   + 86 x_40 * x_66 + 30 x_40 * x_77 + 100 x_40 * x_95 + 34 x_41 * x_45
   + 8 x_41 * x_46 + 28 x_41 * x_53 + 88 x_41 * x_55 + 36 x_41 * x_56
   + 12 x_41 * x_61 + 72 x_41 * x_70 + 16 x_41 * x_73 + 62 x_41 * x_80
   + 94 x_41 * x_85 + 42 x_41 * x_91 + 38 x_41 * x_100 + 48 x_42 * x_49
   + 18 x_42 * x_51 + 10 x_42 * x_58 + 92 x_42 * x_59 + 14 x_42 * x_62
   + 50 x_42 * x_65 + 72 x_42 * x_66 + 34 x_42 * x_68 + 96 x_42 * x_70
   + 82 x_42 * x_72 + 74 x_42 * x_76 + 6 x_42 * x_78 + 24 x_42 * x_88
   + 74 x_42 * x_89 + 32 x_42 * x_97 + 70 x_42 * x_99 + 54 x_42 * x_100
   + 58 x_43 * x_45 + 38 x_43 * x_46 + 90 x_43 * x_49 + 72 x_43 * x_54
   + 92 x_43 * x_55 + 86 x_43 * x_56 + 56 x_43 * x_60 + 72 x_43 * x_61
   + 84 x_43 * x_65 + 4 x_43 * x_68 + 74 x_43 * x_73 + 44 x_43 * x_83
   + 52 x_43 * x_86 + 64 x_43 * x_88 + 24 x_43 * x_99 + 66 x_44 * x_45
   + 22 x_44 * x_48 + 88 x_44 * x_52 + 40 x_44 * x_63 + 20 x_44 * x_69
   + 64 x_44 * x_70 + 28 x_44 * x_71 + 36 x_44 * x_73 + 66 x_44 * x_74
   + 36 x_44 * x_75 + 88 x_44 * x_79 + 60 x_44 * x_80 + 46 x_44 * x_81
   + 54 x_44 * x_82 + 82 x_44 * x_83 + 100 x_44 * x_84 + 44 x_45 * x_47
   + 18 x_45 * x_51 + 44 x_45 * x_52 + 24 x_45 * x_53 + 14 x_45 * x_58
   + 44 x_45 * x_61 + 72 x_45 * x_72 + 92 x_45 * x_78 + 30 x_45 * x_81
   + 30 x_45 * x_82 + 90 x_45 * x_84 + 20 x_45 * x_85 + 76 x_45 * x_88
   + 40 x_45 * x_90 + 16 x_45 * x_92 + 78 x_45 * x_99 + 52 x_46 * x_49
   + 48 x_46 * x_51 + 18 x_46 * x_53 + 72 x_46 * x_58 + 76 x_46 * x_65
   + 22 x_46 * x_66 + 80 x_46 * x_67 + 48 x_46 * x_76 + 76 x_46 * x_77
   + 28 x_46 * x_80 + 56 x_46 * x_89 + 90 x_46 * x_97 + 30 x_46 * x_98
   + 14 x_46 * x_100 + 98 x_47 * x_52 + 98 x_47 * x_55 + 74 x_47 * x_63
   + 100 x_47 * x_70 + 10 x_47 * x_71 + 36 x_47 * x_75 + 76 x_47 * x_81
   + 88 x_47 * x_89 + 28 x_47 * x_90 + 42 x_47 * x_91 + 92 x_47 * x_92
   + 28 x_47 * x_98 + 50 x_48 * x_53 + 10 x_48 * x_56 + 80 x_48 * x_63
   + 58 x_48 * x_67 + 4 x_48 * x_68 + 52 x_48 * x_71 + 100 x_48 * x_72
   + 24 x_48 * x_74 + 98 x_48 * x_79 + 98 x_48 * x_88 + 48 x_48 * x_92
   + 44 x_48 * x_93 + 100 x_48 * x_95 + 42 x_48 * x_96 + 86 x_48 * x_99
   + 76 x_49 * x_52 + 28 x_49 * x_54 + 62 x_49 * x_59 + 50 x_49 * x_69
   + 88 x_49 * x_73 + 98 x_49 * x_74 + 94 x_49 * x_76 + 64 x_49 * x_79
   + 50 x_49 * x_81 + 82 x_49 * x_83 + 36 x_49 * x_86 + 26 x_49 * x_89
   + 92 x_49 * x_91 + 22 x_49 * x_93 + 32 x_49 * x_94 + 58 x_49 * x_98
   + 42 x_50 * x_54 + 70 x_50 * x_56 + 86 x_50 * x_57 + 6 x_50 * x_58
   + 48 x_50 * x_60 + 76 x_50 * x_63 + 48 x_50 * x_75 + 4 x_50 * x_81
   + 70 x_50 * x_82 + 10 x_50 * x_88 + 50 x_50 * x_93 + 76 x_50 * x_100
   + 30 x_51 * x_52 + 62 x_51 * x_59 + 86 x_51 * x_64 + 64 x_51 * x_65
   + 62 x_51 * x_71 + 34 x_51 * x_73 + 26 x_51 * x_80 + 20 x_51 * x_82
   + 58 x_51 * x_83 + 82 x_51 * x_88 + 30 x_52 * x_54 + 22 x_52 * x_56
   + 46 x_52 * x_57 + 94 x_52 * x_60 + 80 x_52 * x_62 + 66 x_52 * x_66
   + 62 x_52 * x_74 + 42 x_52 * x_83 + 78 x_53 * x_56 + 38 x_53 * x_57
   + 24 x_53 * x_59 + 32 x_53 * x_60 + 78 x_53 * x_64 + 98 x_53 * x_73
   + 88 x_53 * x_74 + 38 x_53 * x_77 + 16 x_53 * x_78 + 34 x_53 * x_80
   + 38 x_53 * x_81 + 4 x_53 * x_83 + 24 x_53 * x_86 + 6 x_53 * x_88
   + 78 x_53 * x_95 + 24 x_53 * x_96 + 14 x_53 * x_97 + 74 x_54 * x_58
   + 82 x_54 * x_65 + 100 x_54 * x_67 + 66 x_54 * x_68 + 14 x_54 * x_71
   + 100 x_54 * x_76 + 22 x_54 * x_80 + 20 x_54 * x_81 + 98 x_54 * x_84
   + 92 x_54 * x_86 + 28 x_54 * x_90 + 32 x_54 * x_92 + 34 x_54 * x_98
   + 58 x_54 * x_99 + 28 x_55 * x_57 + 28 x_55 * x_58 + 2 x_55 * x_62
   + 14 x_55 * x_65 + 16 x_55 * x_69 + 40 x_55 * x_73 + 18 x_55 * x_74
   + 74 x_55 * x_75 + 64 x_55 * x_80 + 92 x_55 * x_85 + 96 x_55 * x_87
   + 62 x_55 * x_89 + 26 x_55 * x_93 + 60 x_55 * x_97 + 100 x_55 * x_98
   + 86 x_56 * x_59 + 60 x_56 * x_64 + 76 x_56 * x_70 + 32 x_56 * x_71
   + 72 x_56 * x_73 + 12 x_56 * x_74 + 80 x_56 * x_79 + 32 x_56 * x_80
   + 80 x_56 * x_84 + 48 x_56 * x_91 + 92 x_56 * x_92 + 20 x_56 * x_98
   + 92 x_56 * x_99 + 100 x_57 * x_60 + 74 x_57 * x_62 + 16 x_57 * x_65
   + 44 x_57 * x_72 + 18 x_57 * x_73 + 94 x_57 * x_74 + 84 x_57 * x_83
   + 54 x_57 * x_87 + 48 x_57 * x_95 + 42 x_57 * x_97 + 50 x_57 * x_100
   + 10 x_58 * x_59 + 22 x_58 * x_60 + 30 x_58 * x_63 + 38 x_58 * x_71
   + 58 x_58 * x_72 + 68 x_58 * x_81 + 80 x_58 * x_88 + 70 x_58 * x_90
   + 8 x_58 * x_91 + 78 x_58 * x_93 + 60 x_58 * x_95 + 32 x_58 * x_97
   + 14 x_58 * x_98 + 68 x_58 * x_99 + 82 x_59 * x_65 + 92 x_59 * x_68
   + 6 x_59 * x_74 + 84 x_59 * x_77 + 72 x_59 * x_82 + 86 x_59 * x_86
   + 80 x_59 * x_88 + 14 x_59 * x_89 + 50 x_59 * x_90 + 8 x_59 * x_92
   + 24 x_60 * x_61 + 84 x_60 * x_63 + 68 x_60 * x_64 + 48 x_60 * x_75
   + 66 x_60 * x_80 + 62 x_60 * x_81 + 40 x_60 * x_84 + 94 x_60 * x_85
   + 96 x_60 * x_97 + 62 x_60 * x_100 + 74 x_61 * x_63 + 54 x_61 * x_65
   + 94 x_61 * x_72 + 60 x_61 * x_78 + 38 x_61 * x_79 + 60 x_61 * x_80
   + 70 x_61 * x_82 + 90 x_61 * x_83 + 98 x_61 * x_84 + 32 x_61 * x_85
   + 2 x_61 * x_89 + 16 x_61 * x_91 + 30 x_61 * x_98 + 46 x_62 * x_64
   + 52 x_62 * x_66 + 30 x_62 * x_67 + 56 x_62 * x_68 + 16 x_62 * x_75
   + 22 x_62 * x_76 + 54 x_62 * x_78 + 80 x_62 * x_79 + 58 x_62 * x_85
   + 4 x_62 * x_91 + 20 x_63 * x_66 + 22 x_63 * x_67 + 4 x_63 * x_69
   + 8 x_63 * x_72 + 30 x_63 * x_74 + 68 x_63 * x_76 + 64 x_63 * x_82
   + 100 x_63 * x_85 + 46 x_63 * x_92 + 62 x_63 * x_93 + 74 x_64 * x_65
   + 96 x_64 * x_71 + 50 x_64 * x_72 + 4 x_64 * x_74 + 76 x_64 * x_79
   + 44 x_64 * x_80 + 38 x_64 * x_82 + 2 x_64 * x_83 + 80 x_64 * x_86
   + 4 x_64 * x_87 + 92 x_64 * x_98 + 10 x_65 * x_66 + 56 x_65 * x_76
   + 94 x_65 * x_77 + 34 x_65 * x_80 + 68 x_65 * x_81 + 24 x_65 * x_82
   + 8 x_65 * x_85 + 36 x_65 * x_88 + 10 x_65 * x_92 + 2 x_65 * x_96
   + 80 x_65 * x_97 + 28 x_65 * x_99 + 16 x_66 * x_68 + 32 x_66 * x_70
   + 56 x_66 * x_72 + 68 x_66 * x_76 + 6 x_66 * x_83 + 28 x_66 * x_85
   + 28 x_66 * x_93 + 8 x_66 * x_97 + 2 x_67 * x_74 + 42 x_67 * x_79
   + 96 x_67 * x_80 + 96 x_67 * x_82 + 2 x_67 * x_89 + 48 x_67 * x_93
   + 26 x_67 * x_95 + 88 x_67 * x_97 + 16 x_67 * x_99 + 96 x_68 * x_73
   + 38 x_68 * x_75 + 56 x_68 * x_78 + 2 x_68 * x_79 + 66 x_68 * x_83
   + 86 x_68 * x_86 + 60 x_68 * x_87 + 6 x_68 * x_89 + 68 x_68 * x_90
   + 6 x_68 * x_92 + 8 x_69 * x_73 + 36 x_69 * x_74 + 66 x_69 * x_78
   + 42 x_69 * x_79 + 72 x_69 * x_81 + 88 x_69 * x_83 + 84 x_69 * x_85
   + 8 x_69 * x_89 + 44 x_69 * x_90 + 30 x_69 * x_99 + 12 x_70 * x_81
   + 92 x_70 * x_83 + 62 x_70 * x_88 + 24 x_70 * x_93 + 26 x_70 * x_95
   + 22 x_71 * x_78 + 12 x_71 * x_82 + 2 x_71 * x_88 + 64 x_71 * x_92
   + 64 x_71 * x_96 + 100 x_72 * x_73 + 36 x_72 * x_77 + 80 x_72 * x_91
   + 54 x_73 * x_80 + 28 x_73 * x_81 + 20 x_73 * x_84 + 70 x_73 * x_87
   + 18 x_73 * x_90 + 62 x_73 * x_97 + 48 x_74 * x_80 + 20 x_74 * x_84
   + 88 x_74 * x_85 + 40 x_75 * x_78 + 96 x_75 * x_83 + 68 x_75 * x_84
   + 96 x_75 * x_88 + 96 x_75 * x_89 + 94 x_75 * x_99 + 4 x_76 * x_79
   + 64 x_76 * x_86 + 46 x_76 * x_89 + 100 x_76 * x_92 + 58 x_76 * x_96
   + 88 x_76 * x_99 + 28 x_76 * x_100 + 86 x_77 * x_78 + 24 x_77 * x_79
   + 96 x_77 * x_80 + 44 x_77 * x_84 + 68 x_77 * x_88 + 30 x_77 * x_89
   + 44 x_77 * x_96 + 94 x_77 * x_100 + 82 x_78 * x_81 + 94 x_78 * x_82
   + 54 x_78 * x_87 + 70 x_78 * x_92 + 40 x_78 * x_97 + 42 x_78 * x_98
   + 52 x_79 * x_87 + 78 x_79 * x_91 + 28 x_79 * x_93 + 26 x_79 * x_100
   + 58 x_80 * x_83 + 6 x_80 * x_84 + 58 x_80 * x_97 + 20 x_80 * x_98
   + 8 x_81 * x_85 + 26 x_81 * x_90 + 82 x_81 * x_91 + 26 x_81 * x_98
   + 16 x_81 * x_99 + 64 x_81 * x_100 + 30 x_82 * x_88 + 88 x_82 * x_89
   + 58 x_82 * x_97 + 28 x_82 * x_98 + 66 x_82 * x_100 + 86 x_83 * x_86
   + 16 x_83 * x_97 + 90 x_83 * x_100 + 36 x_84 * x_86 + 14 x_84 * x_87
   + 68 x_84 * x_91 + 68 x_84 * x_93 + 84 x_84 * x_94 + 84 x_84 * x_100
   + 12 x_85 * x_86 + 2 x_85 * x_92 + 80 x_85 * x_97 + 20 x_86 * x_91
   + 92 x_86 * x_94 + 30 x_87 * x_90 + 30 x_87 * x_93 + 26 x_87 * x_94
   + 54 x_87 * x_97 + 6 x_88 * x_89 + 68 x_88 * x_92 + 42 x_88 * x_95
   + 80 x_88 * x_97 + 80 x_88 * x_99 + 8 x_89 * x_90 + 52 x_90 * x_93
   + 50 x_90 * x_99 + 52 x_91 * x_92 + 86 x_94 * x_95 + 22 x_94 * x_97
   + 90 x_95 * x_96 + 70 x_96 * x_98 + 66 x_98 * x_99 + 6 x_99 * x_100
   ] / 2 
Subject To
 R0: 7 x_1 + 13 x_2 + 20 x_3 + 2 x_4 + 9 x_5 + 7 x_6 + 4 x_7 + 12 x_8
   + 25 x_9 + x_10 + 16 x_11 + 16 x_12 + 19 x_13 + 25 x_14 + 19 x_15
   + 7 x_16 + 5 x_17 + 2 x_18 + 14 x_19 + 11 x_20 + x_21 + 4 x_22 + 21 x_23
   + 19 x_24 + 8 x_25 + 17 x_26 + 2 x_27 + 23 x_28 + 7 x_29 + 4 x_30
   + 18 x_31 + 22 x_32 + 7 x_33 + 8 x_34 + 16 x_35 + 5 x_36 + 20 x_37
   + 8 x_38 + 3 x_39 + 17 x_40 + 19 x_41 + 21 x_42 + 7 x_43 + 18 x_44
   + 18 x_45 + 8 x_46 + 25 x_47 + 18 x_48 + x_49 + 24 x_50 + 12 x_51
   + 19 x_52 + 11 x_53 + 6 x_54 + 25 x_55 + 19 x_56 + 23 x_57 + 3 x_58
   + 6 x_59 + 6 x_60 + 2 x_61 + 3 x_62 + 20 x_63 + x_64 + 16 x_65 + 10 x_66
   + 3 x_67 + 24 x_68 + 23 x_69 + 20 x_70 + 19 x_71 + 12 x_72 + 3 x_73
   + 21 x_74 + 20 x_75 + 15 x_76 + x_77 + 14 x_78 + 25 x_79 + 12 x_80
   + 14 x_81 + 23 x_82 + 10 x_83 + 19 x_84 + 9 x_85 + 19 x_86 + 2 x_87
   + 22 x_88 + 7 x_89 + 9 x_90 + 25 x_91 + 7 x_92 + x_93 + 11 x_94
   + 17 x_95 + 12 x_96 + 11 x_97 + 24 x_98 + 8 x_99 + 14 x_100 <= 1131
Bounds
Binaries
 x_1 x_2 x_3 x_4 x_5 x_6 x_7 x_8 x_9 x_10 x_11 x_12 x_13 x_14 x_15 x_16
 x_17 x_18 x_19 x_20 x_21 x_22 x_23 x_24 x_25 x_26 x_27 x_28 x_29 x_30 x_31
 x_32 x_33 x_34 x_35 x_36 x_37 x_38 x_39 x_40 x_41 x_42 x_43 x_44 x_45 x_46
 x_47 x_48 x_49 x_50 x_51 x_52 x_53 x_54 x_55 x_56 x_57 x_58 x_59 x_60 x_61
 x_62 x_63 x_64 x_65 x_66 x_67 x_68 x_69 x_70 x_71 x_72 x_73 x_74 x_75 x_76
 x_77 x_78 x_79 x_80 x_81 x_82 x_83 x_84 x_85 x_86 x_87 x_88 x_89 x_90 x_91
 x_92 x_93 x_94 x_95 x_96 x_97 x_98 x_99 x_100
End
